
  32    4
  10   10   10   10

   0   0   0   0   0  14 2 3 4 5 9 10 11 12 15 16 17 29 30 31 
  10   1   1   1   0   5 28 27 8 7 6 
   1   2   3   5   0   5 26 25 21 7 6 
  10   7   4   0   1   5 23 22 21 13 6 
   5   0   4   5   3   4 22 21 14 13 
   8   6   4   4   0   3 24 20 18 
   8   7   2   0   3   3 23 19 18 
   9   5   3   0   3   3 25 22 18 
   5   2   3   3   0   3 24 23 18 
   1   3   5   0   3   2 21 20 
   7   6   1   0   7   2 22 18 
   2   0   6   4   1   2 21 19 
   4   2   0   3   2   1 18 
   1   6   2   3   0   1 19 
   3   9   2   0   3   1 26 
   5   2   3   0   4   1 20 
   1   6   7   0   2   1 19 
   8   4   0   5   9   1 32
   2   5   0   1   4   1 32
   2   3   4   0   4   1 32
   5   0   6   7   8   1 32
   5   3   0   5   4   1 32
   3   2   6   0   4   1 32
   5   5   3   5   0   1 32
   7   0   4   4   7   1 32
   5   0   9   5   4   1 32
   4   0   2   6   3   1 32
   5   2   9   3   0   1 32
   8   4   3   3   0   1 32
   3   2   0   4   5   1 32
   7   2   4   4   0   1 32
   0   0   0   0   0   0 
